c read Graph
c width = 2
c time = 30 ms
c width = 2
c time = 4843 ms
s td 32 3 34
b 1 1 2 19
b 2 2 3 20
b 3 3 4 21
b 4 4 5 22
b 5 5 6 23
b 6 6 7 24
b 7 7 8 25
b 8 8 9 26
b 9 9 10 27
b 10 10 11 28
b 11 11 12 29
b 12 12 13 30
b 13 13 14 31
b 14 14 15 32
b 15 15 16 33
b 16 16 17 34
b 17 16 33 34
b 18 15 32 33
b 19 14 31 32
b 20 13 30 31
b 21 12 29 30
b 22 11 28 29
b 23 10 27 28
b 24 9 26 27
b 25 8 25 26
b 26 7 24 25
b 27 6 23 24
b 28 5 22 23
b 29 4 21 22
b 30 3 20 21
b 31 2 19 20
b 32 1 18 19
1 32
1 31
2 31
2 30
3 30
3 29
4 29
4 28
5 28
5 27
6 27
6 26
7 26
7 25
8 25
8 24
9 24
9 23
10 23
10 22
11 22
11 21
12 21
12 20
13 20
13 19
14 19
14 18
15 18
15 17
16 17
